projet_m2_wvcp/projet_m2_wvcp/reduced_wvcp_dzn/GEOM90b.clq.dzn
cliques=[{0,1,3,7,22,23,24,30,51,52,53,55,58},{0,1,2,4,3,24,23,51,52,53},{0,1,2,4,3,24,23,51,52,53},{0,3,7,11,23,24,29,30,32,52,53,55,56,58,59},{0,1,2,4,3,24,23,51,52,53},{5,9,12,27,31,37,36,42,45,49,67},{1,3,6,8,22,23,24,30,51,52,53,55,58},{0,7,11,23,24,29,30,32,52,56,55,59,58,63},{1,3,7,8,22,23,24,30,51,52,53,55,58},{5,9,12,27,31,37,36,42,45,49,67},{2,4,10,13,28,35,41,54,57,60,62,64},{0,3,7,11,23,24,29,30,32,52,53,56,55,58,59},{5,9,12,25,27,31,36,37,45,49,67},{4,10,13,15,28,35,41,54,57,60,62,64,68},{7,8,11,14,22,24,23,30,55,56,58},{4,10,13,15,28,35,41,54,57,60,62,64,68},{5,9,16,17,31,37,42,44,46,48},{5,9,16,17,31,37,39,44,46,48},{6,12,18,25,33,40,61},{5,16,17,19,31,39,44,46,48},{0,7,20,29,32,38,43,47,59,63},{0,7,11,21,29,30,32,56,59,63},{1,3,7,8,22,23,24,30,51,52,53,55,58},{0,3,7,11,23,24,29,30,32,52,53,55,56,58,59},{0,3,7,11,24,23,29,30,32,52,53,55,56,58,59},{6,5,8,9,22,25,27,31,36},{1,2,4,10,26,28,51,54,57,62,60},{6,5,8,9,22,25,27,31,36},{2,4,10,13,28,35,41,54,57,60,62,64},{0,7,11,23,24,29,30,32,52,56,55,59,58,63},{0,3,7,11,23,24,29,30,32,52,53,56,55,58,59},{5,9,12,27,31,37,36,42,45,49,67},{0,7,11,23,24,29,30,32,52,56,55,59,58,63},{1,2,4,3,26,33,51,53,61},{2,4,10,13,28,34,35,54,57,60,62,64},{2,4,10,13,28,34,35,54,57,60,62,64},{5,9,12,25,27,31,36,37,45,49,67},{5,9,12,27,31,37,36,42,45,49,67},{0,7,20,29,32,38,43,47,59,63},{5,9,16,17,31,37,39,44,46,48},{1,6,25,26,33,40,51,61},{4,10,13,15,28,35,41,54,57,60,62,64,68},{5,9,12,27,31,37,36,42,45,49,67},{0,7,20,29,32,38,43,47,59,63},{5,9,16,17,31,37,39,44,46,48},{5,9,12,27,31,37,36,42,45,49,67},{5,9,16,17,31,37,39,44,46,48},{0,7,20,29,32,38,43,47,59,63},{5,9,16,17,31,37,39,44,46,48},{5,9,12,25,27,31,36,37,45,49,67},{9,12,25,27,36,49,50},{0,1,2,4,3,24,23,51,52,53},{0,1,3,7,22,23,24,30,51,52,53,55,58},{0,3,7,11,23,24,29,30,32,52,53,55,56,58,59},{2,4,10,13,28,35,41,54,57,62,60,64},{0,3,7,11,22,23,24,30,32,52,53,55,56,58},{0,7,11,23,24,29,30,32,52,56,55,59,58,63},{2,4,10,13,28,35,41,54,57,62,60,64},{0,3,7,11,23,24,29,30,32,52,53,55,56,58,59},{0,7,11,23,24,29,30,32,52,56,55,59,58,63},{2,4,10,13,28,35,41,54,57,60,62,64},{1,2,4,3,26,33,51,53,61},{2,4,10,13,28,35,41,54,57,62,60,64},{0,7,11,23,24,29,30,32,52,56,55,59,58,63},{2,4,10,13,28,34,35,54,57,60,62,64},{1,2,4,26,33,51,54,57,62,61,65},{2,4,10,13,26,41,54,57,62,66},{5,9,12,27,31,37,36,42,45,49,67},{4,10,13,15,28,35,41,54,57,60,62,64,68}];
nr_cliques=69;
