projet_m2_wvcp/projet_m2_wvcp/reduced_wvcp_dzn/GEOM90b.dzn
name="GEOM90b";
nr_vertices=69;
nr_edges=680;
neighborhoods=[{1,2,3,4,7,10,11,20,21,22,23,24,28,29,30,32,34,35,38,43,47,51,52,53,55,56,58,59,60,63,64},{0,2,3,4,6,7,8,10,22,23,24,25,26,27,28,30,33,40,51,52,53,54,55,57,58,60,61,62,65},{0,1,3,4,6,8,10,13,23,24,26,28,33,34,35,40,41,51,52,53,54,57,60,61,62,64,65,66},{0,1,2,4,5,6,7,8,11,22,23,24,25,26,27,29,30,32,33,51,52,53,55,56,58,59,61},{0,1,2,3,10,13,15,23,24,26,28,33,34,35,41,51,52,53,54,57,60,61,62,64,65,66,68},{3,6,8,9,12,16,17,19,22,23,24,25,27,31,36,37,39,42,44,45,46,48,49,53,67},{1,2,3,5,8,9,12,18,22,23,24,25,26,27,30,31,33,36,40,51,52,53,55,58,61},{0,1,3,8,11,14,20,21,22,23,24,29,30,32,38,43,47,51,52,53,55,56,58,59,63},{1,2,3,5,6,7,9,11,14,22,23,24,25,27,30,31,36,39,51,52,53,55,56,58},{5,6,8,12,16,17,22,25,27,31,36,37,39,42,44,45,46,48,49,50,67},{0,1,2,4,13,15,26,28,34,35,38,41,51,52,54,57,60,62,64,66,68},{0,3,7,8,14,21,22,23,24,29,30,32,39,52,53,55,56,58,59,63},{5,6,9,18,25,27,31,33,36,37,40,42,45,49,50,61,67},{2,4,10,15,26,28,34,35,41,54,57,60,62,64,66,68},{7,8,11,17,19,22,23,24,30,39,44,48,55,56,58},{4,10,13,26,28,35,41,54,57,60,62,64,65,66,68},{5,9,17,19,31,36,37,39,42,44,45,46,48,67},{5,9,14,16,19,31,37,39,42,44,46,48,67},{6,12,25,26,33,40,50,54,57,61,65,66},{5,14,16,17,22,31,39,44,46,48,55},{0,7,21,29,32,38,43,47,56,59,63},{0,7,11,20,29,30,32,56,59,63},{0,1,3,5,6,7,8,9,11,14,19,23,24,25,27,30,31,32,36,39,51,52,53,55,56,58},{0,1,2,3,4,5,6,7,8,11,14,22,24,27,29,30,32,51,52,53,55,56,58,59,63},{0,1,2,3,4,5,6,7,8,11,14,22,23,27,29,30,32,51,52,53,55,56,58,59,63},{1,3,5,6,8,9,12,18,22,26,27,31,33,36,37,40,45,49,50,51,53,61,65,67},{1,2,3,4,6,10,13,15,18,25,28,33,40,41,51,53,54,57,60,61,62,65,66,68},{1,3,5,6,8,9,12,22,23,24,25,31,33,36,37,40,42,45,49,50,53,61,67},{0,1,2,4,10,13,15,26,29,34,35,38,41,43,47,51,52,54,57,60,62,64,68},{0,3,7,11,20,21,23,24,28,30,32,34,38,43,47,51,52,53,55,56,58,59,63},{0,1,3,6,7,8,11,14,21,22,23,24,29,32,51,52,53,55,56,58,59,63},{5,6,8,9,12,16,17,19,22,25,27,36,37,39,42,44,45,46,48,49,67},{0,3,7,11,20,21,22,23,24,29,30,38,43,47,52,53,55,56,58,59,63},{1,2,3,4,6,12,18,25,26,27,40,50,51,53,54,57,61,62,65,66},{0,2,4,10,13,28,29,35,38,43,47,51,52,54,57,59,60,62,64,68},{0,2,4,10,13,15,28,34,38,41,43,47,51,54,57,60,62,64,68},{5,6,8,9,12,16,22,25,27,31,37,42,45,49,50,61,67},{5,9,12,16,17,25,27,31,36,39,42,44,45,46,48,49,67},{0,7,10,20,28,29,32,34,35,43,47,52,56,59,60,63,64},{5,8,9,11,14,16,17,19,22,31,37,44,46,48,55,58},{1,2,6,12,18,25,26,27,33,50,51,54,57,61,65,66},{2,4,10,13,15,26,28,35,54,57,60,62,64,65,66,68},{5,9,12,16,17,27,31,36,37,44,45,46,48,49,67},{0,7,20,28,29,32,34,35,38,47,52,59,60,63,64},{5,9,14,16,17,19,31,37,39,42,45,46,48,67},{5,9,12,16,25,27,31,36,37,42,44,46,49,67},{5,9,16,17,19,31,37,39,42,44,45,48,67},{0,7,20,28,29,32,34,35,38,43,56,59,63},{5,9,14,16,17,19,31,37,39,42,44,46},{5,9,12,25,27,31,36,37,42,45,50,67},{9,12,18,25,27,33,36,40,49,61,65},{0,1,2,3,4,6,7,8,10,22,23,24,25,26,28,29,30,33,34,35,40,52,53,54,55,56,57,58,59,60,61,62,64,65},{0,1,2,3,4,6,7,8,10,11,22,23,24,28,29,30,32,34,38,43,51,53,54,55,56,58,59,60,63},{0,1,2,3,4,5,6,7,8,11,22,23,24,25,26,27,29,30,32,33,51,52,55,56,58,59,61},{1,2,4,10,13,15,18,26,28,33,34,35,40,41,51,52,57,60,61,62,64,65,66,68},{0,1,3,6,7,8,11,14,19,22,23,24,29,30,32,39,51,52,53,56,58,59,63},{0,3,7,8,11,14,20,21,22,23,24,29,30,32,38,47,51,52,53,55,58,59,63},{1,2,4,10,13,15,18,26,28,33,34,35,40,41,51,54,60,61,62,64,65,66,68},{0,1,3,6,7,8,11,14,22,23,24,29,30,32,39,51,52,53,55,56,59,63},{0,3,7,11,20,21,23,24,29,30,32,34,38,43,47,51,52,53,55,56,58,63},{0,1,2,4,10,13,15,26,28,34,35,38,41,43,51,52,54,57,62,64,68},{1,2,3,4,6,12,18,25,26,27,33,36,40,50,51,53,54,57,62,65,66},{1,2,4,10,13,15,26,28,33,34,35,41,51,54,57,60,61,64,65,66,68},{0,7,11,20,21,23,24,29,30,32,38,43,47,52,55,56,58,59},{0,2,4,10,13,15,28,34,35,38,41,43,51,54,57,60,62,68},{1,2,4,15,18,25,26,33,40,41,50,51,54,57,61,62,66},{2,4,10,13,15,18,26,33,40,41,54,57,61,62,65,68},{5,9,12,16,17,25,27,31,36,37,42,44,45,46,49},{4,10,13,15,26,28,34,35,41,54,57,60,62,64,66}];
weights=[3,3,3,3,3,3,3,3,3,3,3,3,3,3,3,3,3,3,3,3,3,3,2,2,2,2,2,2,2,2,2,2,2,2,2,2,2,2,2,2,2,2,2,2,2,2,2,2,2,2,2,1,1,1,1,1,1,1,1,1,1,1,1,1,1,1,1,1,1];
